language ESSENCE' 1.0
$ Minion SolverNodes: 17
$ Minion SolverTotalTime: 0.044905
$ Minion SolverTimeOut: 0
$ Savile Row TotalTime: 0.349
letting M be [[50, 9, 45, 18, 5, 44, 6], 
[50, 5, 45, 18, 44, 6, -1], 
[50, 5, 6, 18, 44, -1, -1], 
[50, 5, 6, 44, -1, -1, -1], 
[44, 5, 6, -1, -1, -1, -1], 
[5, 6, -1, -1, -1, -1, -1], 
[6, -1, -1, -1, -1, -1, -1]]
